Version identifier: 20.1.0.0 | 2020-11-10 | 9bedb6d68
Tried aggregator 2 times.
MIP Presolve eliminated 1271 rows and 625 columns.
MIP Presolve modified 3178 coefficients.
Aggregator did 140 substitutions.
Reduced MIP has 1798 rows, 1450 columns, and 5899 nonzeros.
Reduced MIP has 281 binaries, 1169 generals, 0 SOSs, and 0 indicators.
Presolve time = 0.02 sec. (7.26 ticks)
Found incumbent of value 2771.000000 after 0.04 sec. (14.53 ticks)
Probing fixed 36 vars, tightened 426 bounds.
Probing time = 0.00 sec. (1.20 ticks)
Tried aggregator 2 times.
Detecting symmetries...
MIP Presolve eliminated 694 rows and 52 columns.
MIP Presolve modified 159 coefficients.
Aggregator did 22 substitutions.
Reduced MIP has 1082 rows, 1376 columns, and 3535 nonzeros.
Reduced MIP has 377 binaries, 999 generals, 0 SOSs, and 0 indicators.
Presolve time = 0.01 sec. (4.96 ticks)
Probing time = 0.00 sec. (0.32 ticks)
Clique table members: 21.
MIP emphasis: balance optimality and feasibility.
MIP search method: dynamic search.
Parallel mode: deterministic, using up to 24 threads.
Root relaxation solution time = 0.01 sec. (3.80 ticks)

        Nodes                                         Cuts/
   Node  Left     Objective  IInf  Best Integer    Best Bound    ItCnt     Gap

*     0+    0                         2771.0000        0.0000           100.00%
*     0+    0                           89.0000        0.0000           100.00%
      0     0        0.0000    51       89.0000        0.0000      376  100.00%
      0     0        0.2174   344       89.0000     Cuts: 198      673   99.76%
      0     0        0.8290   345       89.0000     Cuts: 198      975   99.07%
      0     0        1.0714   336       89.0000     Cuts: 104     1181   98.80%
*     0+    0                           17.0000        1.0714            93.70%
      0     0        1.3018   444       17.0000     Cuts: 135     1440   11.76%
      0     0        1.3554   173       17.0000      Cuts: 76     1617   11.76%
      0     0        1.4172   225       17.0000     Cuts: 106     1697   11.76%
*     0+    0                           16.0000       15.0000             6.25%
      0     0        cutoff             16.0000       16.0000     1697    0.00%
Elapsed time = 1.19 sec. (167.07 ticks, tree = 0.01 MB, solutions = 4)

Cover cuts applied:  2
Implied bound cuts applied:  51
Flow cuts applied:  13
Mixed integer rounding cuts applied:  21
Zero-half cuts applied:  50
Lift and project cuts applied:  2
Gomory fractional cuts applied:  9

Root node processing (before b&c):
  Real time             =    1.19 sec. (167.20 ticks)
Parallel b&c, 24 threads:
  Real time             =    0.00 sec. (0.00 ticks)
  Sync time (average)   =    0.00 sec.
  Wait time (average)   =    0.00 sec.
                          ------------
Total (root+branch&cut) =    1.19 sec. (167.20 ticks)

Solution status = Optimal
Solution LB = 16
Solution UB = 16
Runtime = 1.19699 seconds
	Command being timed: "/home/min/git_repos/CS598MEBProject/CNT-ILP/build/cnt -s 2 ./output/k8_n20/simC_c1_k8_n20_u2_s2_del04.input-right.cnp"
	User time (seconds): 18.89
	System time (seconds): 0.08
	Percent of CPU this job got: 1552%
	Elapsed (wall clock) time (h:mm:ss or m:ss): 0:01.22
	Average shared text size (kbytes): 0
	Average unshared data size (kbytes): 0
	Average stack size (kbytes): 0
	Average total size (kbytes): 0
	Maximum resident set size (kbytes): 115704
	Average resident set size (kbytes): 0
	Major (requiring I/O) page faults: 0
	Minor (reclaiming a frame) page faults: 26389
	Voluntary context switches: 6313
	Involuntary context switches: 2416
	Swaps: 0
	File system inputs: 0
	File system outputs: 16
	Socket messages sent: 0
	Socket messages received: 0
	Signals delivered: 0
	Page size (bytes): 4096
	Exit status: 0
